; Property from "Case-Analysis for Rippling and Inductive Proof",
; Moa Johansson, Lucas Dixon and Alan Bundy, ITP 2010
(declare-datatypes (a)
  ((list (nil) (cons (head a) (tail (list a))))))
(declare-datatypes () ((Nat (Z) (S (p Nat)))))
(define-fun-rec
  minus
    ((x Nat) (y Nat)) Nat
    (match x
      (case Z Z)
      (case (S z)
        (match y
          (case Z x)
          (case (S x2) (minus z x2))))))
(define-fun-rec
  (par (a)
    (len
       ((x (list a))) Nat
       (match x
         (case nil Z)
         (case (cons y xs) (S (len xs)))))))
(define-fun-rec
  (par (a)
    (drop
       ((x Nat) (y (list a))) (list a)
       (match x
         (case Z y)
         (case (S z)
           (match y
             (case nil (as nil (list a)))
             (case (cons x2 x3) (drop z x3))))))))
(assert-not
  (par (a)
    (forall ((n Nat) (xs (list a)))
      (= (len (drop n xs)) (minus (len xs) n)))))
(check-sat)
